NAME : portcgen-26-1
COMMENT : portcgen N=26, seed=1
TYPE : TSP
DIMENSION : 26
EDGE_WEIGHT_TYPE : EUC_2D
NODE_COORD_SECTION
1 -132113 -269564
2 -95756 -112284
3 -42897 35691
4 -14750 -84889
5 -317044 94229
6 -129378 -206630
7 -270669 76351
8 176114 215579
9 220960 -112330
10 -116106 -119547
11 35728 93600
12 -111326 -33396
13 22966 -7034
14 -230326 351215
15 -72366 66474
16 -96640 -1161
17 -33605 12144
18 -179625 189868
19 2117 232598
20 6672 -248489
21 86423 174578
22 11958 80908
23 255473 15173
24 136651 -43589
25 105978 169807
26 18741 -305313
